\ Generated by MPModelProtoExporter
\   Name             : 
\   Format           : Free
\   Constraints      : 14
\   Variables        : 15
\     Binary         : 12
\     Integer        : 3
\     Continuous     : 0
Minimize
 Obj: +13 X01 +25 X02 +15 X03 +13 X10 +9999 X12 +21 X13 +25 X20 +26 X21 +11 X23 +15 X30 +9999 X31 +11 X32 
Subject to
 in_3: +1 X10 +1 X20 +1 X30  = 1
 in_3_1: +1 X01 +1 X21 +1 X31  = 1
 in_3_2: +1 X02 +1 X12 +1 X32  = 1
 in_3_3: +1 X03 +1 X13 +1 X23  = 1
 out_0: +1 X01 +1 X02 +1 X03  = 1
 out_1: +1 X10 +1 X12 +1 X13  = 1
 out_2: +1 X20 +1 X21 +1 X23  = 1
 out_3: +1 X30 +1 X31 +1 X32  = 1
 U_12: +3 X12 +1 U[1] -1 U[2]  <= 2
 U_13: +3 X13 +1 U[1] -1 U[3]  <= 2
 U_21: +3 X21 -1 U[1] +1 U[2]  <= 2
 U_23: +3 X23 +1 U[2] -1 U[3]  <= 2
 U_31: +3 X31 -1 U[1] +1 U[3]  <= 2
 U_32: +3 X32 -1 U[2] +1 U[3]  <= 2
Bounds
 0 <= X01 <= 1
 0 <= X02 <= 1
 0 <= X03 <= 1
 0 <= X10 <= 1
 0 <= X12 <= 1
 0 <= X13 <= 1
 0 <= X20 <= 1
 0 <= X21 <= 1
 0 <= X23 <= 1
 0 <= X30 <= 1
 0 <= X31 <= 1
 0 <= X32 <= 1
 1 <= U[1] <= 3
 1 <= U[2] <= 3
 1 <= U[3] <= 3
Binaries
 X01
 X02
 X03
 X10
 X12
 X13
 X20
 X21
 X23
 X30
 X31
 X32
Generals
 U[1]
 U[2]
 U[3]
End
